3 40 2090
29 360 1980
26 490 2130
2 630 1660
20 590 1390
10 710 1310
4 750 1100
18 460 860
14 510 700
17 230 590
22 490 500
11 840 550
15 750 900
19 1040 950
25 1280 790
13 970 1340
21 830 1770
5 750 2030
9 790 2260
12 1170 2300
6 1030 2070
28 1260 1910
1 1150 1760
24 1260 1500
8 1490 1630
27 1460 1420
16 1280 1200
7 1650 650
23 1840 1240
3 40 2090
